c 
c MolecularSimulation 0.9.3
c Simulation written: Jan 13 2012 -- 15:17:57
c Test: Distribution
c Input: ./data/testCNF/SWEEP_R9_K3_N20_M176_S002.cnf
c 
s UNSATISFIABLE
v 0
c algorithmTime:  1310
c solutionMemory: 0
c mixCount:       525
c extractCount:   0
c appendCount:    16797820
c splitCount:     525
c spliceCount:    7896181
c purifyCount:    175
c 
